MW

VEHICLE
NUMBER     CAPACITY
  25         80

CUSTOMER
CUST NO.   XCOORD.    YCOORD.    DEMAND   READY TIME   DUE DATE   SERVICE TIME

    0      677.908     6150.22       0         360        1320         0
    1      720.415     6176.26       16        404         524         0
    2      711.815     6208.84       10        387         507         0
    3      710.831     6168.72       4        360         471         0
    4      662.179     6199.59       4        365         485         0
    5      720.134     6210.2       3        440         560         0
    6      723.05     6178.5       9        409         529         0
    7      722.462     6177.77       3        436         556         0
    8      719.104     6173.16       3        360         480         0
    9      726.755     6174.37       6        389         509         0
    10      718.638     6205.73       8        463         583         0
    11      665.308     6126.82       4        437         557         0
    12      714.197     6169.88       3        460         580         0
    13      711.357     6175.12       14        382         502         0
    14      712.256     6183.71       10        433         553         0
    15      724.312     6179.85       7        415         535         0
    16      713.038     6174.56       8        417         537         0
    17      680.041     6165.33       16        360         461         0
    18      714     6175.86       7        424         544         0
    19      729.376     6171.38       3        424         544         0
    20      719.162     6180.84       7        368         488         0
    21      538.181     6086.48       16        839         959         0
    22      588.257     6139.25       10        713         833         0
    23      528.913     6152.56       4        748         868         0
    24      500.074     6269.75       4        894         1014         0
    25      585.053     6140.35       3        717         837         0
    26      557.926     6181.75       9        725         845         0
    27      609.023     6077.16       3        692         812         0
    28      507.721     6199.18       3        831         951         0
    29      522.714     6075.1       6        794         914         0
    30      526.981     6257.53       8        831         951         0
    31      465.029     6147.73       4        868         988         0
    32      466.076     6153.32       3        824         944         0
    33      468.578     6147.06       14        895         1015         0
    34      604.134     6229.59       10        694         814         0
    35      569.239     6227.02       7        763         883         0
    36      527.858     6099.83       8        836         956         0
    37      550.967     6189.33       16        714         834         0
    38      460.95     6153.72       7        846         966         0
    39      524.269     6122.27       3        826         946         0
    40      559.318     6372.82       7        877         997         0

0	1 2 3 4 5 6 7 8 9 10 11 12 13 14 15 16 17 18 19 20 21 22 23 24 25 26 27 28 29 30 31 32 33 34 35 36 37 38 39 40 
1	2 3 4 5 6 7 8 9 10 11 12 13 14 15 16 17 18 19 20 0 
2	1 3 4 5 6 7 8 9 10 11 12 13 14 15 16 17 18 19 20 0 
3	1 2 4 5 6 7 8 9 10 11 12 13 14 15 16 17 18 19 20 0 
4	1 2 3 5 6 7 8 9 10 11 12 13 14 15 16 17 18 19 20 0 
5	1 2 3 4 6 7 8 9 10 11 12 13 14 15 16 17 18 19 20 0 
6	1 2 3 4 5 7 8 9 10 11 12 13 14 15 16 17 18 19 20 0 
7	1 2 3 4 5 6 8 9 10 11 12 13 14 15 16 17 18 19 20 0 
8	1 2 3 4 5 6 7 9 10 11 12 13 14 15 16 17 18 19 20 0 
9	1 2 3 4 5 6 7 8 10 11 12 13 14 15 16 17 18 19 20 0 
10	1 2 3 4 5 6 7 8 9 11 12 13 14 15 16 17 18 19 20 0 
11	1 2 3 4 5 6 7 8 9 10 12 13 14 15 16 17 18 19 20 0 
12	1 2 3 4 5 6 7 8 9 10 11 13 14 15 16 17 18 19 20 0 
13	1 2 3 4 5 6 7 8 9 10 11 12 14 15 16 17 18 19 20 0 
14	1 2 3 4 5 6 7 8 9 10 11 12 13 15 16 17 18 19 20 0 
15	1 2 3 4 5 6 7 8 9 10 11 12 13 14 16 17 18 19 20 0 
16	1 2 3 4 5 6 7 8 9 10 11 12 13 14 15 17 18 19 20 0 
17	1 2 3 4 5 6 7 8 9 10 11 12 13 14 15 16 18 19 20 0 
18	1 2 3 4 5 6 7 8 9 10 11 12 13 14 15 16 17 19 20 0 
19	1 2 3 4 5 6 7 8 9 10 11 12 13 14 15 16 17 18 20 0 
20	1 2 3 4 5 6 7 8 9 10 11 12 13 14 15 16 17 18 19 0 
21	22 23 24 25 26 27 28 29 30 31 32 33 34 35 36 37 38 39 40 0 
22	21 23 24 25 26 27 28 29 30 31 32 33 34 35 36 37 38 39 40 0 
23	21 22 24 25 26 27 28 29 30 31 32 33 34 35 36 37 38 39 40 0 
24	21 22 23 25 26 27 28 29 30 31 32 33 34 35 36 37 38 39 40 0 
25	21 22 23 24 26 27 28 29 30 31 32 33 34 35 36 37 38 39 40 0 
26	21 22 23 24 25 27 28 29 30 31 32 33 34 35 36 37 38 39 40 0 
27	21 22 23 24 25 26 28 29 30 31 32 33 34 35 36 37 38 39 40 0 
28	21 22 23 24 25 26 27 29 30 31 32 33 34 35 36 37 38 39 40 0 
29	21 22 23 24 25 26 27 28 30 31 32 33 34 35 36 37 38 39 40 0 
30	21 22 23 24 25 26 27 28 29 31 32 33 34 35 36 37 38 39 40 0 
31	21 22 23 24 25 26 27 28 29 30 32 33 34 35 36 37 38 39 40 0 
32	21 22 23 24 25 26 27 28 29 30 31 33 34 35 36 37 38 39 40 0 
33	21 22 23 24 25 26 27 28 29 30 31 32 34 35 36 37 38 39 40 0 
34	21 22 23 24 25 26 27 28 29 30 31 32 33 35 36 37 38 39 40 0 
35	21 22 23 24 25 26 27 28 29 30 31 32 33 34 36 37 38 39 40 0 
36	21 22 23 24 25 26 27 28 29 30 31 32 33 34 35 37 38 39 40 0 
37	21 22 23 24 25 26 27 28 29 30 31 32 33 34 35 36 38 39 40 0 
38	21 22 23 24 25 26 27 28 29 30 31 32 33 34 35 36 37 39 40 0 
39	21 22 23 24 25 26 27 28 29 30 31 32 33 34 35 36 37 38 40 0 
40	21 22 23 24 25 26 27 28 29 30 31 32 33 34 35 36 37 38 39 0 

